
Gurobi 8.1.1 (mac64, Python) logging started Tue Jul 30 16:26:12 2019

Academic license - for non-commercial use only

Gurobi 8.1.1 (mac64, Python) logging started Tue Jul 30 16:32:48 2019

Academic license - for non-commercial use only

Gurobi 8.1.1 (mac64, Python) logging started Tue Jul 30 16:34:58 2019

Academic license - for non-commercial use only

Gurobi 8.1.1 (mac64, Python) logging started Tue Jul 30 16:36:03 2019

Academic license - for non-commercial use only
